HeuristicsProject/solutions/greedy/camera_K6_N14_0.sol
z =     804.00;
Covered crossing-day pairs: 98 / 98
Assignments (modelId, crossingId, pattern):
  Model 4 -> Crossing 10, Pattern: (0, 1, 1, 0, 1, 1, 1)
  Model 4 -> Crossing 0, Pattern: (1, 0, 0, 1, 1, 0, 1)
  Model 4 -> Crossing 6, Pattern: (0, 1, 1, 0, 0, 0, 0)
  Model 4 -> Crossing 3, Pattern: (1, 0, 0, 1, 1, 0, 1)
  Model 4 -> Crossing 7, Pattern: (0, 0, 0, 0, 0, 1, 1)
  Model 4 -> Crossing 11, Pattern: (0, 0, 0, 1, 1, 1, 0)
  Model 4 -> Crossing 1, Pattern: (1, 0, 0, 1, 1, 0, 1)
  Model 4 -> Crossing 2, Pattern: (1, 0, 0, 0, 0, 0, 1)
